247
9
249
29
189
201
12
253
99
247
110
114
95
208
43
195
267
9
52
167
57
241
192
12
159
57
212
44
184
253
157
3
124
24
55
263
90
253
218
109
81
98
97
40
11
184
21
223
200
25
31
135
127
149
172
132
199
69
113
45
169
221
143
51
121
238
61
74
140
247
59
175
10
115
57
124
175
108
135
133
108
5
135
213
174
192
161
185
177
6
153
124
137
184
216
167
156
75
67
259
